8 8 64
1 1 1
2 1 .3333333333
3 1 1
4 1 1
5 1 .3333333333
6 1 .3333333333
7 1 1
8 1 1
1 2 .3333333333
2 2 1
3 2 1
4 2 .3333333333
5 2 1
6 2 .3333333333
7 2 1
8 2 .3333333333
1 3 1
2 3 1
3 3 1
4 3 .3333333333
5 3 .3333333333
6 3 .3333333333
7 3 1
8 3 1
1 4 .3333333333
2 4 .3333333333
3 4 1
4 4 .3333333333
5 4 .3333333333
6 4 1
7 4 1
8 4 .3333333333
1 5 1
2 5 .3333333333
3 5 1
4 5 .3333333333
5 5 .3333333333
6 5 .3333333333
7 5 .3333333333
8 5 1
1 6 1
2 6 .3333333333
3 6 1
4 6 .3333333333
5 6 1
6 6 .3333333333
7 6 1
8 6 1
1 7 1
2 7 .3333333333
3 7 .3333333333
4 7 .3333333333
5 7 1
6 7 .3333333333
7 7 1
8 7 1
1 8 .3333333333
2 8 .3333333333
3 8 1
4 8 .3333333333
5 8 .3333333333
6 8 .3333333333
7 8 1
8 8 1